p cnf 100 1
100 0
w 1 0.344598
w 2 1 1
w 2 -1 0
w 3 2 1
w 3 -2 0
w 4 3 0.959413
w 4 -3 0.487659
w 5 4 0
w 5 -4 1
w 6 5 0
w 6 -5 1
w 7 6 0
w 7 -6 1
w 8 7 0
w 8 -7 1
w 9 8 0
w 9 -8 1
w 10 9 1
w 10 -9 0
w 11 1 0.692777
w 11 -1 0.915637
w 12 11 2 0.947341
w 12 11 -2 0.854789
w 12 -11 2 0.139232
w 12 -11 -2 0.0398961
w 13 12 3 1
w 13 12 -3 0
w 13 -12 3 1
w 13 -12 -3 0
w 14 13 4 1
w 14 13 -4 1
w 14 -13 4 1
w 14 -13 -4 0
w 15 14 5 1
w 15 14 -5 0
w 15 -14 5 1
w 15 -14 -5 1
w 16 15 6 1
w 16 15 -6 1
w 16 -15 6 1
w 16 -15 -6 0
w 17 16 7 0
w 17 16 -7 1
w 17 -16 7 0
w 17 -16 -7 1
w 18 17 8 1
w 18 17 -8 0
w 18 -17 8 1
w 18 -17 -8 1
w 19 18 9 0.628961
w 19 18 -9 0.280291
w 19 -18 9 0.383826
w 19 -18 -9 0.899308
w 20 19 10 0
w 20 19 -10 0
w 20 -19 10 1
w 20 -19 -10 0
w 21 11 0
w 21 -11 1
w 22 21 12 1
w 22 21 -12 1
w 22 -21 12 0
w 22 -21 -12 1
w 23 22 13 1
w 23 22 -13 0
w 23 -22 13 1
w 23 -22 -13 1
w 24 23 14 0
w 24 23 -14 0
w 24 -23 14 0
w 24 -23 -14 1
w 25 24 15 1
w 25 24 -15 0
w 25 -24 15 1
w 25 -24 -15 1
w 26 25 16 0
w 26 25 -16 0
w 26 -25 16 1
w 26 -25 -16 0
w 27 26 17 0.482969
w 27 26 -17 0.916113
w 27 -26 17 0.810689
w 27 -26 -17 0.0536192
w 28 27 18 1
w 28 27 -18 1
w 28 -27 18 0
w 28 -27 -18 0
w 29 28 19 1
w 29 28 -19 1
w 29 -28 19 0
w 29 -28 -19 1
w 30 29 20 0
w 30 29 -20 1
w 30 -29 20 0
w 30 -29 -20 1
w 31 21 1
w 31 -21 0
w 32 31 22 0.345141
w 32 31 -22 0.996397
w 32 -31 22 0.299488
w 32 -31 -22 0.878094
w 33 32 23 1
w 33 32 -23 1
w 33 -32 23 1
w 33 -32 -23 0
w 34 33 24 1
w 34 33 -24 1
w 34 -33 24 0
w 34 -33 -24 0
w 35 34 25 0
w 35 34 -25 1
w 35 -34 25 1
w 35 -34 -25 1
w 36 35 26 1
w 36 35 -26 1
w 36 -35 26 0
w 36 -35 -26 1
w 37 36 27 0.495808
w 37 36 -27 0.0167717
w 37 -36 27 0.160605
w 37 -36 -27 0.0371914
w 38 37 28 0.505746
w 38 37 -28 0.0335883
w 38 -37 28 0.105823
w 38 -37 -28 0.38384
w 39 38 29 1
w 39 38 -29 0
w 39 -38 29 1
w 39 -38 -29 0
w 40 39 30 0
w 40 39 -30 1
w 40 -39 30 0
w 40 -39 -30 0
w 41 31 1
w 41 -31 0
w 42 41 32 0.246061
w 42 41 -32 0.34557
w 42 -41 32 0.449924
w 42 -41 -32 0.635421
w 43 42 33 1
w 43 42 -33 1
w 43 -42 33 0
w 43 -42 -33 0
w 44 43 34 0.479881
w 44 43 -34 0.569922
w 44 -43 34 0.948898
w 44 -43 -34 0.286216
w 45 44 35 0
w 45 44 -35 0
w 45 -44 35 1
w 45 -44 -35 1
w 46 45 36 0.536455
w 46 45 -36 0.483276
w 46 -45 36 0.543225
w 46 -45 -36 0.789478
w 47 46 37 0
w 47 46 -37 1
w 47 -46 37 1
w 47 -46 -37 0
w 48 47 38 0.489293
w 48 47 -38 0.88106
w 48 -47 38 0.331005
w 48 -47 -38 0.939216
w 49 48 39 1
w 49 48 -39 0
w 49 -48 39 0
w 49 -48 -39 1
w 50 49 40 0.844086
w 50 49 -40 0.280262
w 50 -49 40 0.363179
w 50 -49 -40 0.792983
w 51 41 1
w 51 -41 0
w 52 51 42 0.958517
w 52 51 -42 0.898355
w 52 -51 42 0.142264
w 52 -51 -42 0.819502
w 53 52 43 0
w 53 52 -43 0
w 53 -52 43 1
w 53 -52 -43 1
w 54 53 44 0
w 54 53 -44 0
w 54 -53 44 1
w 54 -53 -44 1
w 55 54 45 1
w 55 54 -45 1
w 55 -54 45 0
w 55 -54 -45 1
w 56 55 46 0
w 56 55 -46 1
w 56 -55 46 0
w 56 -55 -46 1
w 57 56 47 0
w 57 56 -47 1
w 57 -56 47 1
w 57 -56 -47 1
w 58 57 48 0.989633
w 58 57 -48 0.755836
w 58 -57 48 0.850779
w 58 -57 -48 0.131897
w 59 58 49 1
w 59 58 -49 1
w 59 -58 49 0
w 59 -58 -49 0
w 60 59 50 1
w 60 59 -50 0
w 60 -59 50 0
w 60 -59 -50 0
w 61 51 1
w 61 -51 0
w 62 61 52 0.301202
w 62 61 -52 0.182901
w 62 -61 52 0.570365
w 62 -61 -52 0.451399
w 63 62 53 0
w 63 62 -53 0
w 63 -62 53 1
w 63 -62 -53 1
w 64 63 54 0
w 64 63 -54 0
w 64 -63 54 0
w 64 -63 -54 1
w 65 64 55 0.185971
w 65 64 -55 0.00722234
w 65 -64 55 0.904332
w 65 -64 -55 0.761309
w 66 65 56 0
w 66 65 -56 0
w 66 -65 56 1
w 66 -65 -56 0
w 67 66 57 1
w 67 66 -57 0
w 67 -66 57 0
w 67 -66 -57 1
w 68 67 58 0
w 68 67 -58 0
w 68 -67 58 1
w 68 -67 -58 1
w 69 68 59 1
w 69 68 -59 1
w 69 -68 59 0
w 69 -68 -59 0
w 70 69 60 1
w 70 69 -60 1
w 70 -69 60 1
w 70 -69 -60 0
w 71 61 1
w 71 -61 0
w 72 71 62 0
w 72 71 -62 0
w 72 -71 62 1
w 72 -71 -62 1
w 73 72 63 1
w 73 72 -63 0
w 73 -72 63 0
w 73 -72 -63 0
w 74 73 64 1
w 74 73 -64 0
w 74 -73 64 0
w 74 -73 -64 1
w 75 74 65 0
w 75 74 -65 0
w 75 -74 65 1
w 75 -74 -65 0
w 76 75 66 1
w 76 75 -66 1
w 76 -75 66 0
w 76 -75 -66 0
w 77 76 67 0.469455
w 77 76 -67 0.96544
w 77 -76 67 0.361058
w 77 -76 -67 0.921512
w 78 77 68 0.0618814
w 78 77 -68 0.380792
w 78 -77 68 0.498522
w 78 -77 -68 0.524013
w 79 78 69 0
w 79 78 -69 0
w 79 -78 69 1
w 79 -78 -69 0
w 80 79 70 1
w 80 79 -70 1
w 80 -79 70 0
w 80 -79 -70 0
w 81 71 0.972291
w 81 -71 0.195119
w 82 81 72 0.281881
w 82 81 -72 0.277366
w 82 -81 72 0.623826
w 82 -81 -72 0.0433709
w 83 82 73 0
w 83 82 -73 1
w 83 -82 73 1
w 83 -82 -73 1
w 84 83 74 0
w 84 83 -74 0
w 84 -83 74 1
w 84 -83 -74 0
w 85 84 75 0.83653
w 85 84 -75 0.355849
w 85 -84 75 0.670102
w 85 -84 -75 0.522049
w 86 85 76 0
w 86 85 -76 1
w 86 -85 76 1
w 86 -85 -76 0
w 87 86 77 1
w 87 86 -77 0
w 87 -86 77 1
w 87 -86 -77 0
w 88 87 78 0
w 88 87 -78 0
w 88 -87 78 1
w 88 -87 -78 0
w 89 88 79 0
w 89 88 -79 1
w 89 -88 79 1
w 89 -88 -79 0
w 90 89 80 1
w 90 89 -80 0
w 90 -89 80 0
w 90 -89 -80 1
w 91 81 0.394412
w 91 -81 0.695778
w 92 91 82 1
w 92 91 -82 1
w 92 -91 82 1
w 92 -91 -82 0
w 93 92 83 0.695017
w 93 92 -83 0.708612
w 93 -92 83 0.641882
w 93 -92 -83 0.12545
w 94 93 84 0.421783
w 94 93 -84 0.751003
w 94 -93 84 0.986215
w 94 -93 -84 0.483565
w 95 94 85 1
w 95 94 -85 0
w 95 -94 85 1
w 95 -94 -85 1
w 96 95 86 0
w 96 95 -86 1
w 96 -95 86 1
w 96 -95 -86 0
w 97 96 87 0.386694
w 97 96 -87 0.739728
w 97 -96 87 0.801888
w 97 -96 -87 0.781107
w 98 97 88 1
w 98 97 -88 0
w 98 -97 88 0
w 98 -97 -88 0
w 99 98 89 0
w 99 98 -89 1
w 99 -98 89 1
w 99 -98 -89 0
w 100 99 90 0.809007
w 100 99 -90 0.072728
w 100 -99 90 0.708208
w 100 -99 -90 0.795222